12,1,3,1,11,1,2,2,6,2,5,3,2,3,9,4,4,5,1,4,9,5,8,5;5,1,10,1,4,2,12,2,10,2,3,2,8,2,9,3,7,2,1,2,6,4,7,4,2,5,1,5;4,1,5,2,6,1,9,2,11,3,12,3,6,3,3,4,1,3,7,3,12,5,6,5;9,1,7,1,4,3,10,3,10,4,3,3,8,3,2,4,8,4,11,5;2,1,8,1,11,2,1,1,4,4,11,4,10,5,5,4,12,4,5,5,3,5,7,5;
